letting n =  10
letting blocks =  [[1, 2], [1, 4], [1, 6], [1, 8], [1, 9], [2, 6], [2, 9], [3, 1], [3, 2], [3, 5], [3, 7], [4, 1], [4, 2], [4, 4], [4, 5], [4, 7], [5, 1], [5, 9], [5, 10], [6, 1], [6, 2], [6, 4], [6, 5], [6, 8], [6, 9], [7, 3], [7, 5], [7, 8], [7, 10], [8, 1], [8, 2], [8, 3], [8, 7], [8, 8], [9, 3], [9, 4], [9, 5], [9, 6], [9, 7], [9, 9], [10, 4], [10, 6]]
